c generated wcnf file
p wcnf 945 1580 240
240 -1 2 0
240 2 -3 0
240 -4 2 0
240 2 -5 0
240 -6 2 0
240 2 -7 0
240 -8 2 0
240 2 -9 0
240 -10 2 0
240 2 -11 0
240 12 -13 0
240 -14 12 0
240 -15 12 0
240 -16 12 0
240 -17 12 0
240 12 -18 0
240 -19 12 0
240 -20 12 0
240 12 -21 0
240 -22 12 0
240 -23 24 0
240 -25 24 0
240 -26 24 0
240 -27 24 0
240 -28 24 0
240 -29 24 0
240 -30 24 0
240 -31 24 0
240 -32 24 0
240 -33 24 0
240 34 35 36 -37 38 39 40 41 42 43 44 0
240 -1 45 0
240 46 -3 0
240 -4 47 0
240 48 -5 0
240 -6 49 0
240 -7 50 0
240 -8 51 0
240 -9 52 0
240 -10 53 0
240 54 -11 0
240 45 -13 0
240 -14 46 0
240 -15 47 0
240 48 -16 0
240 -17 49 0
240 50 -18 0
240 -19 51 0
240 -20 52 0
240 53 -21 0
240 54 -22 0
240 45 -23 0
240 -25 46 0
240 -26 47 0
240 48 -27 0
240 -28 49 0
240 -29 50 0
240 -30 51 0
240 -31 52 0
240 53 -32 0
240 54 -33 0
240 13 -45 23 1 0
240 3 -46 25 14 0
240 15 -47 26 4 0
240 16 27 -48 5 0
240 -49 6 28 17 0
240 7 29 18 -50 0
240 -51 30 19 8 0
240 31 20 9 -52 0
240 -53 21 32 10 0
240 22 -54 33 11 0
240 -1 55 -13 0
240 -1 56 0
240 56 -13 0
240 -23 57 58 0
240 59 -23 0
240 59 58 0
240 60 -59 -56 0
240 61 -56 0
240 -59 61 0
240 62 -55 -57 0
240 63 -55 0
240 63 -57 0
240 64 -63 -60 0
240 65 -60 0
240 65 -63 0
240 -65 0
240 -14 66 -3 0
240 67 -3 0
240 -14 67 0
240 68 -25 69 0
240 70 -25 0
240 70 69 0
240 -67 71 -70 0
240 -67 72 0
240 72 -70 0
240 -68 73 -66 0
240 74 -66 0
240 74 -68 0
240 -74 75 -71 0
240 -71 76 0
240 -74 76 0
240 -76 0
240 -4 -15 77 0
240 -4 78 0
240 78 -15 0
240 -26 79 80 0
240 -26 81 0
240 79 81 0
240 82 -78 -81 0
240 83 -78 0
240 83 -81 0
240 -77 -80 84 0
240 -77 85 0
240 -80 85 0
240 86 -85 -82 0
240 -82 87 0
240 -85 87 0
240 -87 0
240 -16 -5 88 0
240 -5 89 0
240 -16 89 0
240 90 -27 91 0
240 92 -27 0
240 92 90 0
240 -92 93 -89 0
240 94 -89 0
240 -92 94 0
240 -91 95 -88 0
240 96 -88 0
240 -91 96 0
240 97 -96 -93 0
240 -93 98 0
240 -96 98 0
240 -98 0
240 -17 99 -6 0
240 -6 100 0
240 -17 100 0
240 -28 101 102 0
240 -28 103 0
240 101 103 0
240 -100 104 -103 0
240 -100 105 0
240 -103 105 0
240 -99 106 -102 0
240 -99 107 0
240 -102 107 0
240 108 -104 -107 0
240 109 -104 0
240 109 -107 0
240 -109 0
240 110 -7 -18 0
240 -7 111 0
240 111 -18 0
240 -29 112 113 0
240 -29 114 0
240 112 114 0
240 115 -111 -114 0
240 -111 116 0
240 -114 116 0
240 -113 -110 117 0
240 -110 118 0
240 -113 118 0
240 -118 119 -115 0
240 -115 120 0
240 -118 120 0
240 -120 0
240 -19 -8 121 0
240 -8 122 0
240 -19 122 0
240 -30 123 124 0
240 -30 125 0
240 125 124 0
240 -122 -125 126 0
240 127 -122 0
240 127 -125 0
240 -121 -123 128 0
240 -121 129 0
240 -123 129 0
240 -129 -126 130 0
240 131 -126 0
240 131 -129 0
240 -131 0
240 -20 -9 132 0
240 133 -9 0
240 -20 133 0
240 134 -31 135 0
240 136 -31 0
240 134 136 0
240 -136 137 -133 0
240 138 -133 0
240 -136 138 0
240 139 -135 -132 0
240 140 -132 0
240 140 -135 0
240 141 -137 -140 0
240 142 -137 0
240 142 -140 0
240 -142 0
240 -10 143 -21 0
240 144 -10 0
240 144 -21 0
240 -32 145 146 0
240 -32 147 0
240 147 145 0
240 -144 -147 148 0
240 -144 149 0
240 -147 149 0
240 -146 150 -143 0
240 -143 151 0
240 -146 151 0
240 152 -148 -151 0
240 -148 153 0
240 153 -151 0
240 -153 0
240 154 -22 -11 0
240 155 -11 0
240 -22 155 0
240 -33 156 157 0
240 -33 158 0
240 158 157 0
240 -155 159 -158 0
240 -155 160 0
240 160 -158 0
240 161 -154 -156 0
240 -154 162 0
240 -156 162 0
240 163 -159 -162 0
240 164 -159 0
240 164 -162 0
240 -164 0
240 -1 -13 165 0
240 -1 166 0
240 -13 166 0
240 167 168 -23 0
240 169 -23 0
240 168 169 0
240 -169 -166 170 0
240 -166 171 0
240 -169 171 0
240 -167 -165 172 0
240 -165 173 0
240 -167 173 0
240 -170 174 -173 0
240 175 -170 0
240 175 -173 0
240 -175 0
240 -14 -3 176 0
240 177 -3 0
240 -14 177 0
240 178 -25 179 0
240 180 -25 0
240 180 179 0
240 181 -177 -180 0
240 -177 182 0
240 -180 182 0
240 -176 183 -178 0
240 -176 184 0
240 184 -178 0
240 -181 -184 185 0
240 -181 186 0
240 -184 186 0
240 -186 0
240 -4 -15 187 0
240 -4 188 0
240 188 -15 0
240 -26 189 190 0
240 -26 191 0
240 189 191 0
240 192 -188 -191 0
240 -188 193 0
240 193 -191 0
240 -190 -187 194 0
240 195 -187 0
240 -190 195 0
240 -195 196 -192 0
240 197 -192 0
240 -195 197 0
240 -197 0
240 198 -16 -5 0
240 199 -5 0
240 199 -16 0
240 200 201 -27 0
240 202 -27 0
240 202 200 0
240 -202 -199 203 0
240 -199 204 0
240 -202 204 0
240 -201 -198 205 0
240 -198 206 0
240 -201 206 0
240 -203 -206 207 0
240 208 -203 0
240 208 -206 0
240 -208 0
240 -17 209 -6 0
240 -6 210 0
240 -17 210 0
240 -28 211 212 0
240 -28 213 0
240 212 213 0
240 214 -210 -213 0
240 -210 215 0
240 215 -213 0
240 -211 216 -209 0
240 217 -209 0
240 -211 217 0
240 -217 -214 218 0
240 219 -214 0
240 219 -217 0
240 -219 0
240 220 -7 -18 0
240 221 -7 0
240 221 -18 0
240 -29 222 223 0
240 -29 224 0
240 223 224 0
240 -221 -224 225 0
240 -221 226 0
240 -224 226 0
240 -222 227 -220 0
240 228 -220 0
240 -222 228 0
240 229 -228 -225 0
240 230 -225 0
240 230 -228 0
240 -230 0
240 -19 -8 231 0
240 -8 232 0
240 -19 232 0
240 233 -30 234 0
240 235 -30 0
240 235 234 0
240 -235 236 -232 0
240 237 -232 0
240 -235 237 0
240 238 -233 -231 0
240 239 -231 0
240 239 -233 0
240 240 -236 -239 0
240 -236 241 0
240 241 -239 0
240 -241 0
240 -20 242 -9 0
240 243 -9 0
240 -20 243 0
240 244 245 -31 0
240 246 -31 0
240 246 245 0
240 -243 -246 247 0
240 248 -243 0
240 248 -246 0
240 -242 249 -244 0
240 -242 250 0
240 -244 250 0
240 -247 251 -250 0
240 -247 252 0
240 252 -250 0
240 -252 0
240 -10 253 -21 0
240 254 -10 0
240 254 -21 0
240 -32 255 256 0
240 257 -32 0
240 257 256 0
240 258 -257 -254 0
240 259 -254 0
240 259 -257 0
240 -253 -255 260 0
240 -253 261 0
240 -255 261 0
240 -261 -258 262 0
240 263 -258 0
240 -261 263 0
240 -263 0
240 -22 -11 264 0
240 -11 265 0
240 -22 265 0
240 -33 266 267 0
240 -33 268 0
240 268 267 0
240 -265 -268 269 0
240 -265 270 0
240 -268 270 0
240 271 -266 -264 0
240 272 -264 0
240 272 -266 0
240 273 -272 -269 0
240 274 -269 0
240 274 -272 0
240 -274 0
240 -1 -13 275 0
240 276 -1 0
240 276 -13 0
240 277 -23 278 0
240 279 -23 0
240 279 278 0
240 -276 280 -279 0
240 -276 281 0
240 -279 281 0
240 -275 282 -277 0
240 -275 283 0
240 -277 283 0
240 -283 -280 284 0
240 285 -280 0
240 -283 285 0
240 -285 0
240 -14 286 -3 0
240 287 -3 0
240 -14 287 0
240 288 289 -25 0
240 290 -25 0
240 288 290 0
240 291 -290 -287 0
240 292 -287 0
240 -290 292 0
240 -286 -289 293 0
240 -286 294 0
240 -289 294 0
240 -291 -294 295 0
240 -291 296 0
240 -294 296 0
240 -296 0
240 297 -4 -15 0
240 -4 298 0
240 -15 298 0
240 -26 299 300 0
240 -26 301 0
240 301 300 0
240 302 -298 -301 0
240 303 -298 0
240 303 -301 0
240 304 -299 -297 0
240 -297 305 0
240 -299 305 0
240 306 -305 -302 0
240 307 -302 0
240 307 -305 0
240 -307 0
240 -16 308 -5 0
240 309 -5 0
240 309 -16 0
240 310 -27 311 0
240 -27 312 0
240 312 311 0
240 -309 313 -312 0
240 -309 314 0
240 314 -312 0
240 315 -310 -308 0
240 -308 316 0
240 -310 316 0
240 317 -313 -316 0
240 318 -313 0
240 318 -316 0
240 -318 0
240 -17 -6 319 0
240 -6 320 0
240 -17 320 0
240 -28 321 322 0
240 323 -28 0
240 323 321 0
240 -320 -323 324 0
240 325 -320 0
240 325 -323 0
240 326 -319 -322 0
240 -319 327 0
240 -322 327 0
240 328 -327 -324 0
240 329 -324 0
240 -327 329 0
240 -329 0
240 330 -7 -18 0
240 331 -7 0
240 331 -18 0
240 -29 332 333 0
240 -29 334 0
240 332 334 0
240 -334 335 -331 0
240 336 -331 0
240 -334 336 0
240 -330 337 -333 0
240 -330 338 0
240 -333 338 0
240 -335 -338 339 0
240 -335 340 0
240 -338 340 0
240 -340 0
240 -19 -8 341 0
240 -8 342 0
240 -19 342 0
240 343 -30 344 0
240 345 -30 0
240 345 344 0
240 -345 -342 346 0
240 347 -342 0
240 -345 347 0
240 -341 -343 348 0
240 -341 349 0
240 -343 349 0
240 350 -346 -349 0
240 -346 351 0
240 351 -349 0
240 -351 0
240 -20 352 -9 0
240 353 -9 0
240 -20 353 0
240 354 355 -31 0
240 356 -31 0
240 356 355 0
240 -353 357 -356 0
240 -353 358 0
240 358 -356 0
240 359 -352 -354 0
240 360 -352 0
240 360 -354 0
240 361 -357 -360 0
240 362 -357 0
240 362 -360 0
240 -362 0
240 -10 -21 363 0
240 -10 364 0
240 -21 364 0
240 365 -32 366 0
240 367 -32 0
240 367 366 0
240 368 -367 -364 0
240 369 -364 0
240 369 -367 0
240 -365 -363 370 0
240 -363 371 0
240 -365 371 0
240 -368 372 -371 0
240 -368 373 0
240 -371 373 0
240 -373 0
240 374 -22 -11 0
240 -11 375 0
240 -22 375 0
240 -33 376 377 0
240 -33 378 0
240 376 378 0
240 -378 379 -375 0
240 380 -375 0
240 380 -378 0
240 381 -374 -377 0
240 -374 382 0
240 382 -377 0
240 383 -379 -382 0
240 384 -379 0
240 384 -382 0
240 -384 0
240 -385 -386 387 0
240 -385 388 0
240 388 -386 0
240 -389 390 -391 0
240 -389 392 0
240 392 -391 0
240 -393 394 -395 0
240 -393 396 0
240 -395 396 0
240 -397 -398 399 0
240 400 -397 0
240 400 -398 0
240 -401 -402 403 0
240 404 -402 0
240 -401 404 0
240 405 -404 -400 0
240 -400 406 0
240 -404 406 0
240 407 -399 -403 0
240 408 -399 0
240 408 -403 0
240 -408 409 -405 0
240 410 -405 0
240 -408 410 0
240 411 -396 -406 0
240 -396 412 0
240 412 -406 0
240 -410 413 -394 0
240 -394 414 0
240 -410 414 0
240 -414 415 -411 0
240 416 -411 0
240 -414 416 0
240 417 -392 -412 0
240 -392 418 0
240 418 -412 0
240 419 -416 -390 0
240 -390 420 0
240 -416 420 0
240 -417 -420 421 0
240 -417 422 0
240 -420 422 0
240 -388 -418 423 0
240 -388 424 0
240 -418 424 0
240 -422 425 -387 0
240 426 -387 0
240 -422 426 0
240 427 -426 -423 0
240 428 -423 0
240 -426 428 0
240 -428 0
240 386 429 385 0
240 430 385 0
240 430 386 0
240 389 391 431 0
240 389 432 0
240 391 432 0
240 433 -432 -430 0
240 -430 434 0
240 -432 434 0
240 435 -431 -429 0
240 436 -429 0
240 436 -431 0
240 -433 -436 437 0
240 438 -433 0
240 438 -436 0
240 439 395 393 0
240 440 393 0
240 395 440 0
240 398 397 441 0
240 397 442 0
240 398 442 0
240 -442 -440 443 0
240 -440 444 0
240 -442 444 0
240 445 -441 -439 0
240 446 -439 0
240 446 -441 0
240 447 -446 -443 0
240 -443 448 0
240 -446 448 0
240 449 -444 -434 0
240 -434 450 0
240 -444 450 0
240 -447 -437 451 0
240 452 -437 0
240 452 -447 0
240 -452 -449 453 0
240 -449 454 0
240 -452 454 0
240 -448 -438 455 0
240 456 -438 0
240 456 -448 0
240 -435 457 -445 0
240 -435 458 0
240 -445 458 0
240 -458 459 -455 0
240 460 -455 0
240 -458 460 0
240 461 -456 -454 0
240 462 -454 0
240 462 -456 0
240 -453 463 -460 0
240 -453 464 0
240 464 -460 0
240 -451 -459 465 0
240 -451 466 0
240 -459 466 0
240 402 401 467 0
240 402 468 0
240 401 468 0
240 469 470 471 0
240 469 472 0
240 472 470 0
240 473 -468 -472 0
240 -468 474 0
240 -472 474 0
240 475 -467 -471 0
240 -467 476 0
240 -471 476 0
240 477 -476 -473 0
240 478 -473 0
240 478 -476 0
240 479 480 481 0
240 480 482 0
240 482 481 0
240 483 484 485 0
240 486 483 0
240 486 484 0
240 -482 487 -486 0
240 -482 488 0
240 488 -486 0
240 -485 -479 489 0
240 490 -479 0
240 -485 490 0
240 491 -490 -487 0
240 492 -487 0
240 492 -490 0
240 -488 -474 493 0
240 494 -474 0
240 -488 494 0
240 -477 -491 495 0
240 -477 496 0
240 -491 496 0
240 -496 497 -493 0
240 -493 498 0
240 -496 498 0
240 499 -492 -478 0
240 500 -478 0
240 500 -492 0
240 -475 501 -489 0
240 -475 502 0
240 502 -489 0
240 -499 -502 503 0
240 504 -499 0
240 504 -502 0
240 505 -498 -500 0
240 -498 506 0
240 506 -500 0
240 507 -497 -504 0
240 508 -497 0
240 508 -504 0
240 -503 -495 509 0
240 510 -495 0
240 -503 510 0
240 -450 511 -494 0
240 -450 512 0
240 -494 512 0
240 -463 513 -507 0
240 -463 514 0
240 514 -507 0
240 -514 -511 515 0
240 516 -511 0
240 516 -514 0
240 -505 517 -461 0
240 518 -461 0
240 518 -505 0
240 -509 519 -465 0
240 520 -465 0
240 520 -509 0
240 -520 -517 521 0
240 -517 522 0
240 -520 522 0
240 523 -516 -518 0
240 -516 524 0
240 -518 524 0
240 525 -522 -515 0
240 526 -515 0
240 526 -522 0
240 -521 -513 527 0
240 528 -513 0
240 528 -521 0
240 529 -506 -462 0
240 530 -462 0
240 530 -506 0
240 531 -510 -466 0
240 -466 532 0
240 -510 532 0
240 533 -532 -529 0
240 -529 534 0
240 -532 534 0
240 -508 -464 535 0
240 -464 536 0
240 -508 536 0
240 -501 537 -457 0
240 -457 538 0
240 -501 538 0
240 539 -538 -535 0
240 -535 540 0
240 -538 540 0
240 -534 -536 541 0
240 542 -534 0
240 542 -536 0
240 -533 -540 543 0
240 -533 544 0
240 -540 544 0
240 545 -531 -539 0
240 546 -531 0
240 546 -539 0
240 -530 547 -524 0
240 548 -524 0
240 -530 548 0
240 -542 549 -523 0
240 550 -523 0
240 -542 550 0
240 551 -526 -541 0
240 552 -526 0
240 552 -541 0
240 553 -525 -544 0
240 554 -525 0
240 554 -544 0
240 555 -528 -543 0
240 556 -528 0
240 556 -543 0
240 -527 -546 557 0
240 -527 558 0
240 558 -546 0
240 -545 559 -519 0
240 -519 560 0
240 -545 560 0
240 -556 0
240 -561 562 -563 0
240 -563 564 0
240 -561 564 0
240 -565 -566 567 0
240 568 -566 0
240 -565 568 0
240 -569 -570 571 0
240 -569 572 0
240 -570 572 0
240 -573 574 -575 0
240 576 -575 0
240 -573 576 0
240 577 -578 -579 0
240 580 -578 0
240 580 -579 0
240 -576 -580 581 0
240 582 -576 0
240 582 -580 0
240 583 -574 -577 0
240 -574 584 0
240 584 -577 0
240 -584 -581 585 0
240 586 -581 0
240 -584 586 0
240 -582 587 -572 0
240 588 -572 0
240 588 -582 0
240 -571 -586 589 0
240 -571 590 0
240 -586 590 0
240 -587 -590 591 0
240 592 -587 0
240 592 -590 0
240 593 -588 -568 0
240 594 -568 0
240 594 -588 0
240 595 -592 -567 0
240 596 -567 0
240 -592 596 0
240 -596 -593 597 0
240 -593 598 0
240 -596 598 0
240 599 -594 -564 0
240 600 -564 0
240 -594 600 0
240 -562 601 -598 0
240 -562 602 0
240 602 -598 0
240 603 -599 -602 0
240 -599 604 0
240 -602 604 0
240 -604 0
240 561 605 563 0
240 606 563 0
240 561 606 0
240 566 565 607 0
240 566 608 0
240 565 608 0
240 -608 -606 609 0
240 610 -606 0
240 610 -608 0
240 611 -605 -607 0
240 612 -605 0
240 612 -607 0
240 -612 613 -609 0
240 614 -609 0
240 -612 614 0
240 615 569 570 0
240 616 569 0
240 616 570 0
240 575 573 617 0
240 575 618 0
240 573 618 0
240 -616 -618 619 0
240 -616 620 0
240 -618 620 0
240 -615 -617 621 0
240 -615 622 0
240 -617 622 0
240 623 -622 -619 0
240 -619 624 0
240 -622 624 0
240 625 -610 -620 0
240 -610 626 0
240 -620 626 0
240 -623 -613 627 0
240 -613 628 0
240 -623 628 0
240 629 -625 -628 0
240 -625 630 0
240 -628 630 0
240 631 -624 -614 0
240 -614 632 0
240 -624 632 0
240 -611 633 -621 0
240 634 -611 0
240 634 -621 0
240 -634 635 -631 0
240 -631 636 0
240 -634 636 0
240 637 -632 -630 0
240 638 -630 0
240 -632 638 0
240 -636 -629 639 0
240 -629 640 0
240 -636 640 0
240 -635 641 -627 0
240 -627 642 0
240 -635 642 0
240 578 643 579 0
240 578 644 0
240 644 579 0
240 645 646 647 0
240 648 646 0
240 648 647 0
240 649 -648 -644 0
240 -644 650 0
240 -648 650 0
240 -645 651 -643 0
240 652 -643 0
240 652 -645 0
240 -649 -652 653 0
240 -649 654 0
240 654 -652 0
240 655 656 657 0
240 655 658 0
240 657 658 0
240 659 660 661 0
240 660 662 0
240 662 661 0
240 -662 663 -658 0
240 -658 664 0
240 -662 664 0
240 -659 665 -656 0
240 666 -656 0
240 -659 666 0
240 667 -663 -666 0
240 668 -663 0
240 668 -666 0
240 669 -650 -664 0
240 670 -650 0
240 670 -664 0
240 671 -667 -653 0
240 -653 672 0
240 -667 672 0
240 673 -669 -672 0
240 674 -669 0
240 674 -672 0
240 675 -668 -654 0
240 676 -654 0
240 676 -668 0
240 677 -651 -665 0
240 678 -651 0
240 678 -665 0
240 679 -678 -675 0
240 -675 680 0
240 -678 680 0
240 -674 681 -676 0
240 -674 682 0
240 682 -676 0
240 -680 683 -673 0
240 684 -673 0
240 -680 684 0
240 685 -671 -679 0
240 -671 686 0
240 -679 686 0
240 -626 687 -670 0
240 -626 688 0
240 688 -670 0
240 -639 689 -683 0
240 -639 690 0
240 -683 690 0
240 -690 691 -687 0
240 -687 692 0
240 -690 692 0
240 693 -681 -637 0
240 694 -637 0
240 -681 694 0
240 695 -641 -685 0
240 696 -641 0
240 696 -685 0
240 -696 -693 697 0
240 -693 698 0
240 -696 698 0
240 -692 699 -694 0
240 -692 700 0
240 -694 700 0
240 701 -698 -691 0
240 -691 702 0
240 -698 702 0
240 -697 703 -689 0
240 704 -689 0
240 -697 704 0
240 -638 705 -682 0
240 706 -638 0
240 706 -682 0
240 707 -642 -686 0
240 708 -642 0
240 708 -686 0
240 -708 -705 709 0
240 710 -705 0
240 710 -708 0
240 -640 711 -684 0
240 712 -640 0
240 712 -684 0
240 -677 713 -633 0
240 714 -633 0
240 -677 714 0
240 -714 -711 715 0
240 -711 716 0
240 -714 716 0
240 717 -712 -710 0
240 718 -710 0
240 718 -712 0
240 -709 719 -716 0
240 -709 720 0
240 720 -716 0
240 -707 -715 721 0
240 -707 722 0
240 722 -715 0
240 -706 -700 723 0
240 -700 724 0
240 -706 724 0
240 -699 -718 725 0
240 -699 726 0
240 -718 726 0
240 727 -702 -717 0
240 728 -702 0
240 728 -717 0
240 -720 -701 729 0
240 730 -701 0
240 730 -720 0
240 -719 731 -704 0
240 -704 732 0
240 -719 732 0
240 733 -722 -703 0
240 734 -703 0
240 734 -722 0
240 -721 -695 735 0
240 736 -695 0
240 -721 736 0
240 -732 0
240 737 -738 -739 0
240 740 -739 0
240 740 -738 0
240 -741 742 -743 0
240 744 -743 0
240 744 -741 0
240 745 -746 -747 0
240 748 -747 0
240 748 -746 0
240 -749 -750 751 0
240 -749 752 0
240 752 -750 0
240 753 -754 -755 0
240 -754 756 0
240 -755 756 0
240 -752 -756 757 0
240 -752 758 0
240 -756 758 0
240 -751 -753 759 0
240 -751 760 0
240 -753 760 0
240 -760 -757 761 0
240 -757 762 0
240 -760 762 0
240 763 -748 -758 0
240 764 -748 0
240 764 -758 0
240 -762 765 -745 0
240 766 -745 0
240 -762 766 0
240 -763 -766 767 0
240 -763 768 0
240 -766 768 0
240 -744 769 -764 0
240 770 -744 0
240 770 -764 0
240 771 -742 -768 0
240 -742 772 0
240 772 -768 0
240 773 -772 -769 0
240 774 -769 0
240 -772 774 0
240 -740 -770 775 0
240 -740 776 0
240 -770 776 0
240 777 -774 -737 0
240 778 -737 0
240 778 -774 0
240 -778 -775 779 0
240 780 -775 0
240 -778 780 0
240 -780 0
240 781 738 739 0
240 782 739 0
240 738 782 0
240 741 743 783 0
240 743 784 0
240 741 784 0
240 -784 -782 785 0
240 786 -782 0
240 786 -784 0
240 -781 787 -783 0
240 -781 788 0
240 788 -783 0
240 789 -788 -785 0
240 790 -785 0
240 790 -788 0
240 791 747 746 0
240 747 792 0
240 792 746 0
240 750 749 793 0
240 749 794 0
240 750 794 0
240 795 -794 -792 0
240 796 -792 0
240 796 -794 0
240 -793 -791 797 0
240 798 -791 0
240 798 -793 0
240 -795 799 -798 0
240 -795 800 0
240 800 -798 0
240 -796 -786 801 0
240 -786 802 0
240 -796 802 0
240 803 -789 -799 0
240 -789 804 0
240 804 -799 0
240 -801 805 -804 0
240 -801 806 0
240 806 -804 0
240 -790 -800 807 0
240 808 -790 0
240 808 -800 0
240 -797 809 -787 0
240 810 -787 0
240 810 -797 0
240 -807 811 -810 0
240 812 -807 0
240 812 -810 0
240 -806 -808 813 0
240 -806 814 0
240 -808 814 0
240 815 -812 -805 0
240 816 -805 0
240 816 -812 0
240 -803 817 -811 0
240 -803 818 0
240 818 -811 0
240 819 755 754 0
240 754 820 0
240 755 820 0
240 821 822 823 0
240 821 824 0
240 823 824 0
240 -824 825 -820 0
240 -820 826 0
240 -824 826 0
240 -819 827 -822 0
240 -819 828 0
240 -822 828 0
240 -828 829 -825 0
240 830 -825 0
240 830 -828 0
240 831 832 833 0
240 831 834 0
240 834 833 0
240 835 836 837 0
240 838 835 0
240 838 836 0
240 -838 839 -834 0
240 840 -834 0
240 -838 840 0
240 -837 -832 841 0
240 -832 842 0
240 -837 842 0
240 843 -842 -839 0
240 844 -839 0
240 844 -842 0
240 -840 845 -826 0
240 -826 846 0
240 -840 846 0
240 -829 -843 847 0
240 -829 848 0
240 -843 848 0
240 -848 849 -845 0
240 850 -845 0
240 850 -848 0
240 851 -830 -844 0
240 852 -830 0
240 852 -844 0
240 -827 -841 853 0
240 854 -827 0
240 854 -841 0
240 -851 855 -854 0
240 -851 856 0
240 856 -854 0
240 -850 -852 857 0
240 858 -850 0
240 858 -852 0
240 -849 859 -856 0
240 860 -849 0
240 860 -856 0
240 -847 861 -855 0
240 862 -847 0
240 862 -855 0
240 -802 863 -846 0
240 -802 864 0
240 -846 864 0
240 865 -815 -859 0
240 -815 866 0
240 -859 866 0
240 867 -866 -863 0
240 868 -863 0
240 868 -866 0
240 869 -857 -813 0
240 -813 870 0
240 -857 870 0
240 871 -861 -817 0
240 872 -817 0
240 -861 872 0
240 -872 873 -869 0
240 874 -869 0
240 -872 874 0
240 875 -868 -870 0
240 876 -868 0
240 876 -870 0
240 877 -874 -867 0
240 878 -867 0
240 878 -874 0
240 -865 879 -873 0
240 -865 880 0
240 -873 880 0
240 881 -858 -814 0
240 882 -814 0
240 882 -858 0
240 -862 883 -818 0
240 884 -818 0
240 -862 884 0
240 -884 -881 885 0
240 886 -881 0
240 886 -884 0
240 -816 887 -860 0
240 -816 888 0
240 -860 888 0
240 -809 889 -853 0
240 890 -809 0
240 890 -853 0
240 -890 -887 891 0
240 892 -887 0
240 892 -890 0
240 -886 -888 893 0
240 -886 894 0
240 894 -888 0
240 -892 -885 895 0
240 -885 896 0
240 -892 896 0
240 897 -883 -891 0
240 898 -883 0
240 898 -891 0
240 -882 899 -876 0
240 900 -876 0
240 -882 900 0
240 -875 -894 901 0
240 -875 902 0
240 -894 902 0
240 903 -878 -893 0
240 -878 904 0
240 904 -893 0
240 -896 905 -877 0
240 906 -877 0
240 -896 906 0
240 907 -880 -895 0
240 -880 908 0
240 -895 908 0
240 -879 -898 909 0
240 -879 910 0
240 -898 910 0
240 911 -897 -871 0
240 912 -871 0
240 912 -897 0
240 -908 0
240 913 0
240 914 0
240 915 0
240 -1 0
240 -8 0
240 -7 0
240 -4 0
240 -13 0
240 -19 0
240 -18 0
240 -15 0
240 -23 0
240 -30 0
240 -29 0
240 -26 0
240 -385 1 0
240 3 -386 0
240 -389 4 0
240 -391 5 0
240 -393 6 0
240 7 -395 0
240 -397 8 0
240 9 -398 0
240 -402 10 0
240 -401 11 0
240 13 -563 0
240 -561 14 0
240 15 -566 0
240 -565 16 0
240 -569 17 0
240 -570 18 0
240 19 -575 0
240 -573 20 0
240 21 -578 0
240 22 -579 0
240 23 -739 0
240 25 -738 0
240 26 -743 0
240 -741 27 0
240 -747 28 0
240 -746 29 0
240 -749 30 0
240 31 -750 0
240 -754 32 0
240 -755 33 0
240 -1 385 0
240 386 -3 0
240 389 -4 0
240 391 -5 0
240 -6 393 0
240 -7 395 0
240 397 -8 0
240 398 -9 0
240 402 -10 0
240 401 -11 0
240 563 -13 0
240 561 -14 0
240 566 -15 0
240 -16 565 0
240 -17 569 0
240 570 -18 0
240 -19 575 0
240 -20 573 0
240 578 -21 0
240 -22 579 0
240 -23 739 0
240 738 -25 0
240 -26 743 0
240 741 -27 0
240 -28 747 0
240 -29 746 0
240 -30 749 0
240 750 -31 0
240 754 -32 0
240 -33 755 0
240 -1 916 0
240 917 -3 0
240 -4 918 0
240 -5 919 0
240 920 -6 0
240 -7 921 0
240 -8 922 0
240 -9 923 0
240 924 -10 0
240 -11 925 0
240 -13 916 0
240 -14 917 0
240 -15 918 0
240 -16 919 0
240 -17 920 0
240 921 -18 0
240 -19 922 0
240 -20 923 0
240 924 -21 0
240 -22 925 0
240 -23 916 0
240 917 -25 0
240 -26 918 0
240 -27 919 0
240 920 -28 0
240 -29 921 0
240 -30 922 0
240 923 -31 0
240 924 -32 0
240 -33 925 0
240 13 23 -916 1 0
240 3 25 14 -917 0
240 15 26 -918 4 0
240 -919 16 27 5 0
240 -920 6 28 17 0
240 7 -921 29 18 0
240 30 -922 19 8 0
240 31 20 9 -923 0
240 21 32 10 -924 0
240 22 -925 33 11 0
1 -47 -45 46 0
1 -46 47 -48 0
1 -49 -47 48 0
1 -48 49 -50 0
1 -49 -51 50 0
1 51 -52 -50 0
1 -53 -51 52 0
1 53 -54 -52 0
2 -45 47 -48 46 0
2 -49 48 -46 47 0
2 -47 48 49 -50 0
2 -51 50 -48 49 0
2 -49 50 51 -52 0
2 -53 52 51 -50 0
2 -51 53 -54 52 0
3 -49 48 -45 47 46 0
3 48 -46 47 49 -50 0
3 -47 48 -51 50 49 0
3 50 -48 49 51 -52 0
3 -49 -53 50 52 51 0
3 53 -54 52 51 -50 0
4 48 -45 47 49 46 -50 0
4 48 -51 -46 47 50 49 0
4 -47 48 50 49 51 -52 0
4 -53 50 52 -48 49 51 0
4 -49 53 50 -54 52 51 0
5 48 -51 -45 47 50 49 46 0
5 48 -46 47 50 49 51 -52 0
5 -53 -47 48 50 52 49 51 0
5 53 50 -54 52 -48 49 51 0
6 48 -45 47 50 49 46 51 -52 0
6 -53 48 -46 47 50 52 49 51 0
6 -47 48 53 50 -54 52 49 51 0
7 -53 48 -45 47 50 52 49 46 51 0
7 48 -46 53 47 50 -54 52 49 51 0
8 48 -45 53 47 50 -54 52 49 46 51 0
1 -916 917 -918 0
1 -919 918 -917 0
1 -920 -918 919 0
1 -919 920 -921 0
1 -920 -922 921 0
1 922 -921 -923 0
1 -922 923 -924 0
1 924 -923 -925 0
2 -919 -916 917 918 0
2 -920 918 919 -917 0
2 920 -918 -921 919 0
2 -919 920 -922 921 0
2 -920 922 -923 921 0
2 922 -921 923 -924 0
2 924 -922 -925 923 0
3 -920 -916 917 918 919 0
3 920 -921 918 919 -917 0
3 920 -922 -918 919 921 0
3 -919 920 922 -923 921 0
3 -920 922 923 -924 921 0
3 924 922 -921 -925 923 0
4 920 -916 917 -921 918 919 0
4 920 -922 918 919 921 -917 0
4 920 922 -918 -923 919 921 0
4 -919 920 922 923 -924 921 0
4 -920 924 922 -925 923 921 0
5 920 -922 -916 917 918 919 921 0
5 920 922 -923 918 919 921 -917 0
5 920 922 -918 923 919 -924 921 0
5 924 -919 920 922 -925 923 921 0
6 920 922 -916 917 -923 918 919 921 0
6 920 922 923 918 919 -924 921 -917 0
6 924 920 922 -918 -925 923 919 921 0
7 920 922 -916 917 923 918 919 -924 921 0
7 924 920 922 -925 923 918 919 921 -917 0
8 924 920 922 -916 917 -925 923 918 919 921 0
240 -1 926 0
240 927 -3 0
240 -4 928 0
240 929 -5 0
240 -6 930 0
240 -7 931 0
240 932 -8 0
240 -9 933 0
240 -10 934 0
240 -11 935 0
240 926 -13 0
240 927 -14 0
240 -15 928 0
240 929 -16 0
240 -17 930 0
240 931 -18 0
240 932 -19 0
240 -20 933 0
240 934 -21 0
240 -22 935 0
240 -23 926 0
240 927 -25 0
240 -26 928 0
240 929 -27 0
240 -28 930 0
240 -29 931 0
240 932 -30 0
240 933 -31 0
240 934 -32 0
240 -33 935 0
240 13 23 1 -926 0
240 927 -926 46 0
240 3 25 -927 926 14 0
240 3 -46 25 -927 14 0
240 47 -927 928 0
240 15 927 26 -928 4 0
240 15 -47 26 -928 4 0
240 929 48 -928 0
240 16 -929 27 928 5 0
240 16 -929 27 -48 5 0
240 -929 930 49 0
240 929 6 -930 28 17 0
240 -49 6 -930 28 17 0
240 -930 931 50 0
240 7 930 29 -931 18 0
240 7 29 -931 18 -50 0
240 932 -931 51 0
240 30 931 19 -932 8 0
240 -51 30 19 -932 8 0
240 933 52 -932 0
240 932 31 20 9 -933 0
240 31 20 9 -933 -52 0
240 53 934 -933 0
240 21 32 933 10 -934 0
240 -53 21 32 10 -934 0
240 54 935 -934 0
240 -935 22 934 33 11 0
240 -935 22 -54 33 11 0
240 -1 936 0
240 937 -3 0
240 -4 938 0
240 -5 939 0
240 -6 940 0
240 941 -7 0
240 -8 942 0
240 943 -9 0
240 -10 944 0
240 945 -11 0
240 936 -13 0
240 -14 937 0
240 -15 938 0
240 -16 939 0
240 -17 940 0
240 941 -18 0
240 -19 942 0
240 -20 943 0
240 944 -21 0
240 945 -22 0
240 936 -23 0
240 -25 937 0
240 -26 938 0
240 939 -27 0
240 -28 940 0
240 941 -29 0
240 -30 942 0
240 943 -31 0
240 944 -32 0
240 -33 945 0
240 13 23 1 -936 0
240 917 937 -936 0
240 936 3 25 -937 14 0
240 3 25 -937 14 -917 0
240 -937 918 938 0
240 15 26 937 4 -938 0
240 15 26 -918 4 -938 0
240 939 919 -938 0
240 -939 16 27 938 5 0
240 -939 -919 16 27 5 0
240 -939 920 940 0
240 6 939 -940 28 17 0
240 -920 6 -940 28 17 0
240 941 -940 921 0
240 7 -941 29 940 18 0
240 7 -941 -921 29 18 0
240 -941 942 922 0
240 941 30 19 -942 8 0
240 30 -922 19 -942 8 0
240 943 923 -942 0
240 31 20 9 942 -943 0
240 31 20 9 -923 -943 0
240 924 944 -943 0
240 21 32 943 -944 10 0
240 21 32 -944 10 -924 0
240 945 -944 925 0
240 -945 944 22 33 11 0
240 -945 22 -925 33 11 0